c Standarized MaxSat Instance
c{
c "sha1sum": "55178c5dc828d4d2d05b53dd28cac077a60e6e85",
c "nvars": 40,
c "ncls": 92,
c "nhards": 0,
c "nhard_len_stats":
c    { "min": 0, "max": 0, "ave": 0.00,
c      "stddev": 0.00 },
c "nsofts": 92,
c "nsoft_len_stats":
c    { "min": 2, "max": 2, "ave": 2.00,
c      "stddev": 0.00 },
c "nsoft_wts": 10,
c "soft_wt_stats":
c    { "min": 1, "max": 10, "ave": 5.78,
c      "stddev": 2.71 }
c}
c------------------------------------------------------------
c File:  c-fat200-1.clq
c
c Source: Panos Pardalos pardalos@math.ufl.edu
c
c Reference: P. Berman and A. Pelc, Distributed Fault Diagnosis for
c            Multiprocessor Systems, Proceedings of the 20th Annual
c            International Symposium on Fault-Tolerant Computing
c            Newcastle, UK, 340-346 (1990)
c
p wcnf 40 92 533
9 1 16 0
9 -1 -16 0
4 1 23 0
4 -1 -23 0
8 1 38 0
8 -1 -38 0
8 2 17 0
8 -2 -17 0
10 2 24 0
10 -2 -24 0
2 2 39 0
2 -2 -39 0
4 3 18 0
4 -3 -18 0
8 3 25 0
8 -3 -25 0
3 3 40 0
3 -3 -40 0
6 4 19 0
6 -4 -19 0
5 4 26 0
5 -4 -26 0
7 5 20 0
7 -5 -20 0
4 5 27 0
4 -5 -27 0
6 6 21 0
6 -6 -21 0
10 6 28 0
10 -6 -28 0
10 7 22 0
10 -7 -22 0
7 7 29 0
7 -7 -29 0
8 8 23 0
8 -8 -23 0
2 8 30 0
2 -8 -30 0
7 9 24 0
7 -9 -24 0
1 9 31 0
1 -9 -31 0
3 10 25 0
3 -10 -25 0
2 10 32 0
2 -10 -32 0
9 11 26 0
9 -11 -26 0
2 11 33 0
2 -11 -33 0
5 12 27 0
5 -12 -27 0
2 12 34 0
2 -12 -34 0
2 13 28 0
2 -13 -28 0
10 13 35 0
10 -13 -35 0
3 14 29 0
3 -14 -29 0
6 14 36 0
6 -14 -36 0
9 15 30 0
9 -15 -30 0
7 15 37 0
7 -15 -37 0
3 16 31 0
3 -16 -31 0
7 16 38 0
7 -16 -38 0
6 17 32 0
6 -17 -32 0
5 17 39 0
5 -17 -39 0
10 18 33 0
10 -18 -33 0
3 18 40 0
3 -18 -40 0
8 19 34 0
8 -19 -34 0
6 20 35 0
6 -20 -35 0
8 21 36 0
8 -21 -36 0
5 22 37 0
5 -22 -37 0
9 23 38 0
9 -23 -38 0
3 24 39 0
3 -24 -39 0
4 25 40 0
4 -25 -40 0
